objective value:                               180960
t_x6620                                             1 	(obj:0)
t_x81                                               1 	(obj:0)
t_x82                                               1 	(obj:0)
t_x201                                              1 	(obj:0)
t_x202                                              1 	(obj:0)
t_x321                                              1 	(obj:0)
t_x422                                              1 	(obj:0)
t_x521                                              1 	(obj:0)
t_x542                                              1 	(obj:0)
t_x562                                              1 	(obj:0)
t_x600                                              1 	(obj:0)
t_x642                                              1 	(obj:0)
t_x662                                              1 	(obj:0)
t_x682                                              1 	(obj:0)
t_x822                                              1 	(obj:0)
t_x881                                              1 	(obj:0)
t_x1021                                             1 	(obj:0)
t_x1342                                             1 	(obj:0)
t_x1402                                             1 	(obj:0)
t_x1422                                             1 	(obj:0)
t_x1461                                             1 	(obj:0)
t_x1542                                             1 	(obj:0)
t_x1562                                             1 	(obj:0)
t_x1722                                             1 	(obj:0)
t_x1762                                             1 	(obj:0)
t_x1782                                             1 	(obj:0)
t_x1802                                             1 	(obj:0)
t_x1822                                             1 	(obj:0)
t_x1842                                             1 	(obj:0)
t_x1862                                             1 	(obj:0)
t_x1902                                             1 	(obj:0)
t_x1922                                             1 	(obj:0)
t_x1942                                             1 	(obj:0)
t_x1962                                             1 	(obj:0)
t_x2001                                             1 	(obj:0)
t_x2002                                             1 	(obj:0)
t_x2042                                             1 	(obj:0)
t_x2062                                             1 	(obj:0)
t_x2082                                             1 	(obj:0)
t_x2142                                             1 	(obj:0)
t_x2162                                             1 	(obj:0)
t_x2182                                             1 	(obj:0)
t_x2242                                             1 	(obj:0)
t_x2382                                             1 	(obj:0)
t_x2422                                             1 	(obj:0)
t_x2442                                             1 	(obj:0)
t_x2462                                             1 	(obj:0)
t_x2482                                             1 	(obj:0)
t_x2522                                             1 	(obj:0)
t_x2542                                             1 	(obj:0)
t_x2562                                             1 	(obj:0)
t_x2582                                             1 	(obj:0)
t_x2602                                             1 	(obj:0)
t_x2622                                             1 	(obj:0)
t_x2642                                             1 	(obj:0)
t_x2662                                             1 	(obj:0)
t_x2702                                             1 	(obj:0)
t_x2722                                             1 	(obj:0)
t_x2782                                             1 	(obj:0)
t_x2802                                             1 	(obj:0)
t_x2942                                             1 	(obj:0)
t_x2962                                             1 	(obj:0)
t_x2982                                             1 	(obj:0)
t_x3081                                             1 	(obj:0)
t_x3102                                             1 	(obj:0)
t_x3122                                             1 	(obj:0)
t_x3262                                             1 	(obj:0)
t_x3442                                             1 	(obj:0)
t_x3501                                             1 	(obj:0)
t_x3762                                             1 	(obj:0)
t_x3782                                             1 	(obj:0)
t_x3902                                             1 	(obj:0)
t_x3982                                             1 	(obj:0)
t_x4082                                             1 	(obj:0)
t_x4201                                             1 	(obj:0)
t_x4382                                             1 	(obj:0)
t_x4542                                             1 	(obj:0)
t_x4682                                             1 	(obj:0)
t_x4702                                             1 	(obj:0)
t_x4722                                             1 	(obj:0)
t_x4762                                             1 	(obj:0)
t_x4882                                             1 	(obj:0)
t_x4902                                             1 	(obj:0)
t_x4922                                             1 	(obj:0)
t_x4962                                             1 	(obj:0)
t_x5042                                             1 	(obj:0)
t_x5062                                             1 	(obj:0)
t_x5182                                             1 	(obj:0)
t_x5222                                             1 	(obj:0)
t_x5242                                             1 	(obj:0)
t_x5262                                             1 	(obj:0)
t_x5302                                             1 	(obj:0)
t_x5342                                             1 	(obj:0)
t_x5442                                             1 	(obj:0)
t_x5522                                             1 	(obj:0)
t_x5542                                             1 	(obj:0)
t_x5582                                             1 	(obj:0)
t_x5642                                             1 	(obj:0)
t_x5662                                             1 	(obj:0)
t_x5682                                             1 	(obj:0)
t_x5702                                             1 	(obj:0)
t_x5722                                             1 	(obj:0)
t_x5922                                             1 	(obj:0)
t_x6082                                             1 	(obj:0)
t_x6222                                             1 	(obj:0)
t_x6242                                             1 	(obj:0)
t_x6262                                             1 	(obj:0)
t_x6342                                             1 	(obj:0)
t_x6362                                             1 	(obj:0)
t_x6402                                             1 	(obj:0)
t_x6422                                             1 	(obj:0)
t_x6482                                             1 	(obj:0)
t_x6502                                             1 	(obj:0)
t_x6542                                             1 	(obj:0)
t_x6562                                             1 	(obj:0)
t_x1                                           180960 	(obj:1)
